row=9;
column=9;
Board=[|0,0,0,0,5,0,0,0,0|0,2,0,0,5,4,0,3,0|7,0,7,0,0,0,6,0,5|0,0,0,9,0,4,7,6,0|7,0,0,12,9,0,4,0,3|0,0,0,0,9,0,8,0,0|6,0,7,0,10,0,0,3,0|0,0,5,11,0,0,2,0,0|0,0,0,13,0,0,0,6,0|];
